db/inputs/7296136372821210460252112237271337312.smt2
(set-logic QF_FP)
(declare-const x0 (_ FloatingPoint 11 53))
(declare-const x1 (_ FloatingPoint 11 53))
(declare-const x2 (_ FloatingPoint 11 53))
(declare-const x3 (_ FloatingPoint 11 53))
(declare-const x4 (_ FloatingPoint 11 53))
(declare-const x5 (_ FloatingPoint 11 53))
(declare-const x6 (_ FloatingPoint 11 53))
(declare-const x7 (_ FloatingPoint 11 53))
(declare-const x8 (_ FloatingPoint 11 53))
(declare-const x9 (_ FloatingPoint 11 53))
(declare-const x10 (_ FloatingPoint 11 53))
(declare-const x11 (_ FloatingPoint 11 53))
(declare-const x12 (_ FloatingPoint 11 53))
(declare-const x13 (_ FloatingPoint 11 53))
(declare-const x14 (_ FloatingPoint 11 53))
(assert (fp.eq (fp.div RNE (fp.mul RNE x0 x0) (fp.sub RNE x6 x14)) (fp.add RNE (fp.sub RNE x12 x14) (fp.div RNE x5 x14))))
(assert (fp.lt (fp.mul RNE (fp.sub RNE x8 x14) (fp.neg x9)) (fp.neg (fp.sub RNE x10 x9))))
(assert (fp.lt (fp.add RNE (fp.div RNE x1 x2) (fp.sub RNE x6 x2)) (fp.div RNE (fp.mul RNE x14 x11) (fp.sub RNE x12 x0))))
(assert (fp.leq (fp.neg (fp.add RNE x13 x1)) (fp.sub RNE (fp.add RNE x0 x1) (fp.div RNE x5 x10))))
(assert (fp.geq (fp.add RNE (fp.mul RNE x2 x10) (fp.add RNE x13 x4)) (fp.mul RNE (fp.add RNE x1 x12) (fp.add RNE x11 x8))))
(assert (fp.gt (fp.mul RNE (fp.neg x8) (fp.div RNE x2 x4)) (fp.neg (fp.neg x0))))
(assert (fp.gt (fp.sub RNE (fp.add RNE x10 x5) (fp.add RNE x2 x11)) (fp.mul RNE (fp.add RNE x4 x2) (fp.neg x2))))
(assert (fp.lt (fp.neg (fp.add RNE x4 x9)) (fp.add RNE (fp.sub RNE x10 x12) (fp.mul RNE x3 x0))))
(assert (fp.leq (fp.mul RNE (fp.neg x6) (fp.mul RNE x2 x0)) (fp.add RNE (fp.div RNE x4 x4) (fp.add RNE x3 x1))))
(assert (fp.leq (fp.mul RNE (fp.neg x3) (fp.neg x2)) (fp.mul RNE (fp.mul RNE x1 x0) (fp.mul RNE x6 x6))))
(assert (fp.lt (fp.neg (fp.div RNE x5 x13)) (fp.div RNE (fp.add RNE x7 x14) (fp.neg x3))))
(assert (fp.gt (fp.sub RNE (fp.mul RNE x3 x13) (fp.div RNE x5 x2)) (fp.add RNE (fp.add RNE x12 x8) (fp.div RNE x1 x5))))
(assert (fp.lt (fp.neg (fp.div RNE x13 x8)) (fp.sub RNE (fp.neg x13) (fp.div RNE x1 x8))))
(check-sat)
