db/data/7296136372821210460252112237271337312.z3.out
-------------------
2500.128917987
